-1 5 1 9 0 6 6 7 2 -1 4 6 8 5 -1 
0 7 8 2 1 4 9 4 5 6 9 4 0 4 9 0 4 8 5 -1 
7 9 3 1 5 6 1 1 9 9 5 9 -1 0 4 6 3 4 6 7 5 1 -1 
0 2 1 -1 4 0 6 0 1 5 1 5 8 4 2 3 4 -1 
6 8 0 8 5 6 8 3 5 5 5 3 3 1 1 1 1 4 5 6 -1 
8 6 7 1 6 1 6 6 6 -1 6 0 9 6 -1 
4 7 3 8 9 5 9 3 -1 9 1 8 3 9 1 5 -1 
6 7 8 9 3 8 -1 8 4 0 4 0 9 9 9 9 4 1 9 0 5 -1 0 0 -1 
8 6 7 3 5 9 2 0 8 1 6 0 3 7 6 0 1 4 -1 7 7 7 -1 
2 -1 2 0 3 1 0 1 0 1 6 8 9 5 4 2 3 1 -1 
